# 37645
param k := 6;
param n := 50;
param s := 1;
set E :=  (0,3) (0,26) (1,16) (1,18) (1,31) (1,48) (2,6) (3,22) (4,25) (5,38) (6,15) (7,15) (8,25) (8,49) (9,18) (9,36) (9,38) (10,13) (10,41) (11,44) (12,43) (14,45) (15,20) (15,34) (16,21) (16,47) (17,47) (18,35) (18,44) (19,25) (19,27) (19,42) (20,40) (21,39) (22,36) (22,39) (22,42) (23,49) (24,30) (24,39) (26,41) (28,29) (29,49) (32,40) (33,48) (34,41) (35,41) (36,46) (36,48) (37,46) (39,43) (42,45);